c Sudoku solution
p cnf 729 0
127 0
132 0
144 0
171 0
238 0
262 0
273 0
374 0
437 0
466 0
548 0
561 0
592 0
382 0
631 0
669 0
676 0
684 0
712 0
757 0
647 0
367 0
829 0
891 0
481 0
955 0
445 0
165 0
963 0
343 0
113 0
986 0
934 0
794 0
768 0
864 0
999 0
775 0
783 0
833 0
736 0
815 0
721 0
928 0
917 0
941 0
749 0
972 0
618 0
842 0
856 0
246 0
196 0
297 0
526 0
553 0
652 0
454 0
422 0
623 0
535 0
493 0
695 0
478 0
419 0
514 0
224 0
285 0
398 0
189 0
158 0
316 0
211 0
325 0
339 0
259 0
351 0
877 0
888 0
579 0
587 0
